100
32
4
1
14
1
16
6
10
30
23
10
10
3
16
3
2
1
2
2
1
9
1
19
1
1
2
1
19
17
10
2
2
1
2
1
1
4
2
1
1
3
1
2
1
1
17
4
3
1
1
1
1
1
5
19
22
2
1
1
1
19
1
1
2
1
2
1
1
3
4
1
2
3
17
4
17
2
5
1
3
17
1
1
1
3
9
1
2
1
3
2
1
18
8
1
1
2
2
1
1
2